c WARNING: for repeatability, setting FPU to use double precision
d VARIABLES            203970       
d CONSTRAINTS          925437       
c ============================[ Problem Statistics ]=============================
c |                                                                             |
c |  Number of variables:        203970                                         |
c |  Number of clauses:          925437                                         |
c |  Parse time:                   0.15 s                                       |
c |                                                                             |
c ============================[ Search Statistics ]==============================
c | Conflicts |          ORIGINAL         |          LEARNT          | Progress |
c |           |    Vars  Clauses Literals |    Limit  Clauses Lit/Cl |          |
c ===============================================================================
c |       100 |  177995   851161  2059850 |   312092      100     14 | 12.735 % |
c |       250 |  177995   851161  2059850 |   343301      250     38 | 12.735 % |
c |       475 |  177995   851161  2059850 |   377631      475     59 | 12.735 % |
c |       812 |  177995   851161  2059850 |   415394      812     74 | 12.735 % |
c |      1318 |  177995   851161  2059850 |   456934     1318    102 | 12.735 % |
c |      2077 |  177995   851161  2059850 |   502627     2077     96 | 12.735 % |
c |      3216 |  177995   851161  2059850 |   552890     3216     97 | 12.735 % |
c |      4924 |  177995   851161  2059850 |   608179     4924     87 | 12.735 % |
c |      7486 |  177995   851161  2059850 |   668997     7486    118 | 12.735 % |
c |     11330 |  177995   851161  2059850 |   735897    11330    124 | 12.735 % |
c |     17096 |  177995   851161  2059850 |   809487    17096    156 | 12.735 % |
c |     25745 |  177995   851161  2059850 |   890435    25745    158 | 12.735 % |
c |     38719 |  177995   851161  2059850 |   979479    38719    183 | 12.735 % |
c |     58180 |  177994   851148  2059818 |  1077427    58155    168 | 12.735 % |
c |     87372 |  177992   851124  2059760 |  1185170    87220    154 | 12.736 % |
c |    131161 |  177988   851079  2059646 |  1303687   130917    168 | 12.738 % |
c |    196845 |  177900   850267  2057634 |  1434055   193781    152 | 12.781 % |
c ===============================================================================
c restarts              : 510
c conflicts             : 203088         (1627 /sec)
c decisions             : 1201125        (0.00 % random) (9622 /sec)
c propagations          : 521501278      (4177632 /sec)
c conflict literals     : 29965114       (17.68 % deleted)
d RESTARTS             510
d FAILURES             203088       
d NODES                1201125      
d BACKTRACKS           1201125      
d PROPAGATIONS         521501278    
d NOGOODSIZE           147.55 
d MEMORY               276.00 
d TIME                 124.832 

s UNSATISFIABLE
